NAME: bip_40_8
TYPE: TSP
COMMENT: bip_40_8
DIMENSION: 40
EDGE_WEIGHT_TYPE: EUC_2D
NODE_COORD_SECTION
1 99 2
2 9 42
3 49 31
4 37 19
5 58 55
6 53 9
7 80 82
8 36 73
9 94 43
10 33 53
11 53 55
12 77 42
13 12 93
14 13 85
15 52 63
16 71 9
17 33 22
18 2 86
19 24 61
20 31 23
21 491 440
22 417 463
23 457 473
24 446 489
25 455 450
26 438 468
27 435 418
28 413 400
29 449 436
30 445 496
31 438 487
32 465 494
33 498 415
34 447 423
35 491 462
36 472 402
37 408 493
38 490 456
39 497 490
40 467 494
